13
 0 29 0 46 68 0 72 42 0 55 29 74 0
0  0 55 46 42 0 43 0 23 31 41 51 11
82 55 0 46 55 23 43 0 29 79 0 64 0
46 46 68  0 82 15 72 0 62 42 0 51 51
0 42 46 82  0 74 0 52 21 46 82 58 46
0 43 55 15 74  0 61 23 55 0 33 37 51
72 43 0 72 0 61  0 42 0 31 77 0 51
0 23 43 0 0 23 42  0 33 15 0 33 0
51 23 41 62 21 0 23 33  0 29 62 46 29
55 31 0 42 46 31 0 15 29  0 51 21 41
29 41 79 21 0 33 77 37 62 51  0 65 0
74 51 0 51 58 37 0 33 46 21 65  0 61
0 11 64 0 46 51 51 33 29 0 42 61  0